10  5
  0  14  1  99  2  1  3  62  4  42
  0  67  1  9  2  57  3  36  4  25
  0  81  1  70  2  52  3  80  4  83
  0  17  1  63  2  18  3  66  4  14
  0  29  1  91  2  31  3  32  4  72
  0  75  1  99  2  87  3  84  4  78
  0  9  1  50  2  37  3  26  4  52
  0  16  1  13  2  77  3  49  4  79
  0  58  1  4  2  12  3  19  4  26
  0  76  1  26  2  46  3  60  4  11
